Periods = 15;
Items = 10;

Demands = [|0, 0, 0, 0, 0, 0, 0, 1, 0, 0, 1, 0, 0, 0, 0
           |0, 0, 0, 0, 0, 0, 0, 0, 0, 0, 0, 0, 1, 0, 0
           |0, 0, 0, 0, 0, 0, 0, 0, 0, 0, 0, 0, 1, 0, 0
           |0, 0, 0, 0, 0, 0, 0, 0, 0, 0, 0, 0, 0, 1, 0
           |0, 0, 0, 0, 0, 0, 0, 0, 0, 0, 0, 0, 0, 0, 1
           |0, 0, 0, 0, 0, 0, 0, 0, 0, 0, 0, 0, 1, 0, 0
           |0, 0, 0, 0, 0, 0, 0, 0, 0, 0, 0, 0, 0, 1, 0
           |0, 0, 0, 0, 0, 0, 1, 0, 0, 0, 1, 0, 0, 0, 0
           |0, 0, 0, 0, 0, 0, 0, 0, 0, 0, 0, 0, 0, 1, 1
           |0, 0, 0, 0, 0, 0, 0, 0, 1, 0, 0, 1, 0, 0, 0|];

StockingCosts = [10, 10, 10, 10, 10, 10, 10, 10, 10, 10];

SetupCosts = [|0, 197, 165, 141, 154, 169, 176, 177, 186, 149
              |139, 0, 157, 123, 143, 144, 124, 134, 112, 188
              |108, 185, 0, 131, 159, 156, 145, 191, 168, 173
              |124, 177, 184, 0, 187, 100, 136, 112, 129, 113
              |156, 168, 130, 166, 0, 195, 142, 162, 156, 179
              |193, 147, 114, 110, 168, 0, 141, 128, 123, 106
              |186, 139, 116, 123, 160, 127, 0, 169, 161, 108
              |157, 161, 162, 164, 197, 150, 127, 0, 153, 111
              |123, 134, 103, 121, 173, 160, 111, 109, 0, 122
              |105, 114, 197, 166, 181, 152, 109, 153, 137, 0|];
